c CNF formula generated by generate_input.py
c Number of variables: 25
c Number of clauses: 25
c Clause length: random between 1 and 4
p cnf 25 25
-9 -11 0
3 -17 0
-17 -18 21 0
9 5 -15 24 0
-5 19 -15 -4 0
-5 0
-13 12 0
-11 0
7 8 11 19 0
1 4 0
-1 -8 20 -24 0
19 0
8 0
5 0
16 23 -2 -17 0
-25 7 10 0
-24 -5 0
-21 0
-18 0
4 0
-21 19 0
-16 -14 0
10 -7 0
-15 0
15 18 -9 7 0
